;; Preprocessed for Astral solver
(set-info :status sat)
;; variables
(declare-const x0 Loc)
(declare-const x1 Loc)
(declare-const x2 Loc)
(declare-const x3 Loc)
(declare-const x4 Loc)
(declare-const x5 Loc)
(declare-const x6 Loc)
(declare-const x7 Loc)
(declare-const x8 Loc)
(declare-const x9 Loc)
(declare-const x10 Loc)
(declare-const x11 Loc)
(declare-const x12 Loc)
(declare-const x13 Loc)
(declare-const x14 Loc)
(declare-const x15 Loc)
(declare-const x16 Loc)
(declare-const x17 Loc)
(declare-const x18 Loc)
(declare-const x19 Loc)
(declare-const x20 Loc)
(declare-const x21 Loc)
(declare-const x22 Loc)
(declare-const x23 Loc)

(assert 
		(sep 
			(= nil nil)
			(distinct x6 x15)
			(distinct x3 x14)
			(distinct x7 x19)
			(distinct x7 x13)
			(distinct x9 x11)
			(distinct x12 x17)
			(distinct x2 x6)
			(distinct x2 x16)
			(distinct x2 x15)
			(distinct x2 x14)
			(distinct x8 x13)
			(distinct x1 x18)
			(distinct x1 x12)
			(distinct x4 x8)
			(distinct x4 x10)
			(distinct x13 x15)
		(sep 
			(ls x5 x12 )
			(ls x5 x16 )
			(ls x5 x7 )
			(ls x5 x8 )
			(ls x19 x2 )
			(ls x19 x13 )
			(ls x16 x12 )
			(ls x13 x14 )
			(ls x10 x1 )
			(ls x1 x2 )
			(ls x1 x17 )
			(ls x8 x17 )
			(ls x15 x7 )
			(ls x14 x19 )
			(ls x12 x16 )
			(ls x12 x9 )
			(ls x3 x4 )
			(ls x3 x8 )
			(ls x11 x19 )
			(ls x11 x4 )
			(ls x6 x3 )
		)

		)

)

(check-sat)
